(set-logic LIA) (declare-var q!20 Int) (declare-var p!M0 Int) (declare-var J14 Bool) (declare-var J6 Bool) (declare-var J9 Bool) (declare-var qPostExec Int) (declare-var J27 Bool) (declare-var pPostExec Int) (declare-var p!33 Int) (declare-var q!M0 Int) (declare-var J4 Bool) (synth-fun rankingFunction!0 ((arg0 Int) (arg1 Int)) Int ((NTInt Int) (NTbool Bool)) ((NTInt Int (arg0 arg1 0 1 (- NTInt) (+ NTInt NTInt) (- NTInt NTInt) (ite NTbool NTInt NTInt))) (NTbool Bool ((not NTbool) (and NTbool NTbool) (or NTbool NTbool) (ite NTbool NTbool NTbool) (= NTInt NTInt) (< NTInt NTInt) (> NTInt NTInt))))) (constraint (=> (and (and (and (and (and (and (and (and (and (and (and (and (and (and (and (= J4 (<= q!M0 0)) (= J6 (<= p!M0 0))) (= J9 (= p!M0 q!M0))) (= J14 (>= q!M0 p!M0))) (= J27 (>= p!M0 q!M0))) (= p!33 (+ (- 1) p!M0))) (= q!20 (+ (- 1) q!M0))) (=> (and (not J4) (and (not J6) (and (not J9) (and J14 J27)))) (= qPostExec q!M0))) (=> (and (not J4) (and (not J6) (and (not J9) (and J14 J27)))) (= pPostExec p!M0))) (=> (and (not J4) (and (not J6) (and (not J9) (and J14 (not J27))))) (= qPostExec q!M0))) (=> (and (not J4) (and (not J6) (and (not J9) (and J14 (not J27))))) (= pPostExec p!33))) (=> (and (not J4) (and (not J6) (and (not J9) (not J14)))) (= qPostExec q!20))) (=> (and (not J4) (and (not J6) (and (not J9) (not J14)))) (= pPostExec p!M0))) (or (and (not J4) (and (not J6) (and (not J9) (and J14 J27)))) (or (and (not J4) (and (not J6) (and (not J9) (and J14 (not J27))))) (and (not J4) (and (not J6) (and (not J9) (not J14))))))) (>= q!M0 0)) (>= p!M0 0)) (and (> (rankingFunction!0 q!M0 p!M0) (rankingFunction!0 qPostExec pPostExec)) (>= (rankingFunction!0 q!M0 p!M0) 0)))) (check-synth)